20	5
0	6	5	6	1	2	4	3
1	4	13	18	19	20
2	2	15	8
3	1	10
4	1	12
5	3	17	7	14
6	1	15
7	1	21
8	1	11
9	3	18	13	16
10	3	13	17	7
11	1	14
12	4	19	9	15	11
13	1	21
14	1	21
15	1	21
16	1	21
17	1	21
18	1	21
19	1	21
20	1	21
21	0
0	0	0	0	0	0	0
1	1	1	5	0	0	0
2	5	0	0	0	0	3
3	6	0	3	1	4	0
4	7	1	5	0	0	2
5	2	0	4	0	0	3
6	1	5	0	4	0	2
7	4	4	4	4	4	0
8	2	0	0	0	0	5
9	9	3	0	1	0	3
10	5	1	0	0	1	0
11	3	0	2	0	0	0
12	2	0	0	0	1	1
13	6	4	0	4	0	1
14	2	4	0	0	3	0
15	1	5	0	0	0	1
16	1	1	4	4	0	2
17	9	4	1	0	2	1
18	6	0	0	2	1	0
19	4	4	0	5	5	4
20	9	1	3	0	0	0
21	0	0	0	0	0	0
5	5	5	5	5
